2003763
18 14 105167
14 7 67784
7 13 61570
13 17 103707
17 16 136280
16 2 20583
2 1 14476
1 0 106843
0 6 35813
6 12 118893
12 8 45505
8 11 50022
11 10 123742
10 4 43367
4 19 53722
19 5 207524
5 9 253563
9 15 21151
15 3 223221
3 18 238490
